p tw 155 32551 2 
1 3 
1 4 
1 5 
1 6 
1 7 
1 8 
1 9 
1 10 
1 11 
1 12 
1 13 
1 14 
1 15 
1 16 
1 17 
1 18 
1 19 
1 20 
1 21 
1 22 
1 23 
1 24 
1 25 
1 26 
1 27 
1 28 
1 29 
1 31 
1 43 
1 55 
1 56 
1 57 
1 58 
1 59 
1 60 
1 61 
1 62 
1 63 
1 64 
1 65 
1 66 
2 3 
2 4 
2 5 
2 6 
2 7 
2 8 
2 9 
2 10 
2 11 
2 12 
2 13 
2 14 
2 15 
2 16 
2 24 
2 30 
2 31 
2 32 
2 33 
2 34 
2 35 
2 36 
2 37 
2 38 
2 39 
2 40 
2 41 
2 42 
2 47 
2 61 
2 72 
2 81 
2 89 
2 102 
2 110 
2 115 
2 121 
2 122 
2 123 
2 124 
2 125 
3 4 
3 5 
3 6 
3 7 
3 8 
3 9 
3 10 
3 11 
3 12 
3 13 
3 14 
3 15 
3 17 
3 25 
3 30 
3 33 
3 43 
3 44 
3 45 
3 46 
3 47 
3 48 
3 49 
3 50 
3 51 
3 52 
3 53 
3 54 
3 62 
3 74 
3 86 
3 102 
3 114 
3 120 
3 135 
3 142 
3 149 
3 151 
3 153 
3 154 
4 5 
4 6 
4 7 
4 8 
4 9 
4 10 
4 11 
4 12 
4 13 
4 14 
4 15 
4 16 
4 18 
4 32 
4 44 
4 49 
4 55 
4 63 
4 67 
4 68 
4 69 
4 70 
4 71 
4 72 
4 73 
4 74 
4 75 
4 76 
4 82 
4 91 
4 96 
4 103 
4 111 
4 117 
4 121 
4 132 
4 133 
4 134 
4 135 
5 6 
5 7 
5 8 
5 9 
5 10 
5 11 
5 12 
5 13 
5 14 
5 15 
5 19 
5 23 
5 33 
5 38 
5 44 
5 45 
5 56 
5 60 
5 67 
5 77 
5 78 
5 79 
5 80 
5 81 
5 82 
5 83 
5 84 
5 85 
5 88 
5 95 
5 101 
5 109 
5 115 
5 116 
5 117 
5 118 
5 119 
5 120 
6 7 
6 8 
6 9 
6 10 
6 11 
6 12 
6 13 
6 14 
6 15 
6 20 
6 27 
6 34 
6 41 
6 46 
6 51 
6 56 
6 57 
6 68 
6 75 
6 77 
6 86 
6 87 
6 88 
6 89 
6 90 
6 91 
6 92 
6 93 
6 99 
6 103 
6 112 
6 119 
6 124 
6 129 
6 144 
6 146 
6 151 
7 8 
7 9 
7 10 
7 11 
7 12 
7 13 
7 14 
7 15 
7 21 
7 24 
7 35 
7 37 
7 47 
7 50 
7 58 
7 65 
7 69 
7 75 
7 78 
7 82 
7 86 
7 88 
7 94 
7 95 
7 96 
7 97 
7 98 
7 99 
7 100 
7 104 
7 130 
7 143 
7 147 
7 152 
7 154 
7 155 
8 9 
8 10 
8 11 
8 12 
8 13 
8 14 
8 15 
8 17 
8 20 
8 36 
8 39 
8 52 
8 58 
8 63 
8 67 
8 70 
8 79 
8 87 
8 98 
8 101 
8 102 
8 103 
8 104 
8 105 
8 106 
8 107 
8 108 
8 109 
8 122 
8 127 
8 140 
8 142 
8 146 
8 147 
8 148 
9 10 
9 11 
9 12 
9 13 
9 14 
9 15 
9 22 
9 27 
9 37 
9 42 
9 48 
9 54 
9 59 
9 66 
9 71 
9 76 
9 79 
9 80 
9 87 
9 92 
9 94 
9 95 
9 109 
9 110 
9 111 
9 112 
9 113 
9 114 
9 123 
9 131 
9 134 
9 137 
9 147 
9 153 
10 11 
10 12 
10 13 
10 14 
10 15 
10 19 
10 26 
10 35 
10 38 
10 49 
10 53 
10 62 
10 64 
10 69 
10 70 
10 80 
10 90 
10 91 
10 106 
10 110 
10 116 
10 123 
10 126 
10 127 
10 128 
10 129 
10 130 
10 131 
10 138 
10 141 
10 143 
10 146 
10 149 
11 12 
11 13 
11 14 
11 15 
11 25 
11 28 
11 34 
11 39 
11 50 
11 52 
11 59 
11 61 
11 73 
11 76 
11 83 
11 85 
11 90 
11 96 
11 97 
11 101 
11 106 
11 112 
11 119 
11 125 
11 128 
11 135 
11 136 
11 137 
11 138 
11 139 
11 145 
11 152 
12 13 
12 14 
12 15 
12 18 
12 22 
12 31 
12 40 
12 43 
12 51 
12 74 
12 78 
12 81 
12 89 
12 92 
12 97 
12 104 
12 105 
12 113 
12 116 
12 118 
12 126 
12 132 
12 133 
12 136 
12 137 
12 140 
12 141 
12 142 
12 143 
12 144 
12 145 
13 14 
13 15 
13 21 
13 28 
13 30 
13 32 
13 53 
13 64 
13 65 
13 68 
13 77 
13 83 
13 100 
13 107 
13 108 
13 113 
13 114 
13 115 
13 118 
13 121 
13 128 
13 131 
13 134 
13 139 
13 140 
13 144 
13 148 
13 150 
13 151 
13 155 
14 15 
14 26 
14 29 
14 40 
14 42 
14 46 
14 48 
14 55 
14 60 
14 73 
14 84 
14 85 
14 93 
14 94 
14 100 
14 105 
14 107 
14 117 
14 122 
14 124 
14 127 
14 129 
14 132 
14 136 
14 149 
14 150 
14 152 
14 153 
14 155 
15 23 
15 29 
15 36 
15 41 
15 45 
15 54 
15 57 
15 66 
15 71 
15 72 
15 84 
15 93 
15 98 
15 99 
15 108 
15 111 
15 120 
15 125 
15 126 
15 130 
15 133 
15 138 
15 139 
15 141 
15 145 
15 148 
15 150 
15 154 
16 17 
16 18 
16 19 
16 20 
16 21 
16 22 
16 23 
16 24 
16 25 
16 26 
16 27 
16 28 
16 29 
16 30 
16 31 
16 32 
16 33 
16 34 
16 35 
16 36 
16 37 
16 38 
16 39 
16 40 
16 41 
16 42 
16 49 
16 63 
16 82 
16 91 
16 96 
16 103 
16 111 
16 117 
16 121 
16 132 
16 133 
16 134 
16 135 
17 18 
17 19 
17 20 
17 21 
17 22 
17 23 
17 24 
17 25 
17 26 
17 27 
17 28 
17 29 
17 30 
17 36 
17 43 
17 44 
17 45 
17 46 
17 47 
17 48 
17 49 
17 50 
17 51 
17 52 
17 53 
17 54 
17 58 
17 70 
17 79 
17 87 
17 101 
17 102 
17 103 
17 104 
17 105 
17 106 
17 107 
17 108 
18 19 
18 20 
18 21 
18 22 
18 23 
18 24 
18 25 
18 26 
18 27 
18 28 
18 29 
18 32 
18 40 
18 43 
18 44 
18 55 
18 67 
18 68 
18 69 
18 70 
18 71 
18 72 
18 73 
18 74 
18 75 
18 76 
18 78 
18 89 
18 105 
18 113 
18 116 
18 133 
18 137 
18 142 
18 143 
18 144 
18 145 
19 20 
19 21 
19 22 
19 23 
19 24 
19 25 
19 26 
19 27 
19 28 
19 29 
19 33 
19 35 
19 45 
19 49 
19 56 
19 62 
19 67 
19 70 
19 77 
19 78 
19 79 
19 80 
19 81 
19 82 
19 83 
19 84 
19 85 
19 90 
19 110 
19 116 
19 126 
19 127 
19 128 
19 129 
19 130 
19 131 
20 21 
20 22 
20 23 
20 24 
20 25 
20 26 
20 27 
20 28 
20 29 
20 34 
20 39 
20 46 
20 52 
20 57 
20 63 
20 67 
20 68 
20 77 
20 86 
20 87 
20 88 
20 89 
20 90 
20 91 
20 92 
20 93 
20 98 
20 109 
20 122 
20 127 
20 140 
20 142 
20 146 
20 147 
20 148 
21 22 
21 23 
21 24 
21 25 
21 26 
21 27 
21 28 
21 29 
21 32 
21 35 
21 47 
21 53 
21 58 
21 65 
21 69 
21 77 
21 78 
21 86 
21 94 
21 95 
21 96 
21 97 
21 98 
21 99 
21 100 
21 107 
21 114 
21 115 
21 128 
21 134 
21 139 
21 140 
21 144 
21 150 
22 23 
22 24 
22 25 
22 26 
22 27 
22 28 
22 29 
22 31 
22 37 
22 48 
22 51 
22 59 
22 71 
22 74 
22 80 
22 81 
22 87 
22 92 
22 94 
22 97 
22 104 
22 109 
22 110 
22 111 
22 112 
22 113 
22 114 
22 118 
22 126 
22 132 
22 136 
22 140 
22 141 
23 24 
23 25 
23 26 
23 27 
23 28 
23 29 
23 36 
23 38 
23 44 
23 54 
23 57 
23 60 
23 71 
23 84 
23 88 
23 95 
23 99 
23 101 
23 109 
23 115 
23 116 
23 117 
23 118 
23 119 
23 120 
23 125 
23 126 
23 133 
23 138 
23 148 
23 150 
23 154 
24 25 
24 26 
24 27 
24 28 
24 29 
24 37 
24 47 
24 50 
24 61 
24 65 
24 72 
24 75 
24 81 
24 82 
24 88 
24 89 
24 102 
24 104 
24 110 
24 115 
24 121 
24 122 
24 123 
24 124 
24 125 
24 130 
24 143 
24 147 
24 152 
24 154 
24 155 
25 26 
25 27 
25 28 
25 29 
25 33 
25 39 
25 50 
25 61 
25 62 
25 73 
25 74 
25 83 
25 86 
25 90 
25 96 
25 101 
25 102 
25 112 
25 114 
25 120 
25 135 
25 136 
25 137 
25 138 
25 139 
25 142 
25 149 
25 151 
25 153 
25 154 
26 27 
26 28 
26 29 
26 38 
26 40 
26 48 
26 53 
26 60 
26 64 
26 69 
26 73 
26 80 
26 84 
26 91 
26 93 
26 100 
26 106 
26 107 
26 123 
26 124 
26 127 
26 132 
26 138 
26 141 
26 143 
26 146 
26 149 
26 152 
26 153 
27 28 
27 29 
27 41 
27 42 
27 51 
27 54 
27 56 
27 66 
27 75 
27 76 
27 79 
27 92 
27 95 
27 99 
27 103 
27 112 
27 119 
27 123 
27 124 
27 129 
27 131 
27 134 
27 137 
27 144 
27 146 
27 147 
27 151 
27 153 
28 29 
28 30 
28 34 
28 52 
28 59 
28 64 
28 68 
28 76 
28 83 
28 85 
28 97 
28 100 
28 106 
28 108 
28 113 
28 118 
28 119 
28 121 
28 125 
28 128 
28 131 
28 135 
28 145 
28 148 
28 151 
28 152 
28 155 
29 41 
29 42 
29 45 
29 46 
29 55 
29 66 
29 72 
29 85 
29 93 
29 94 
29 98 
29 105 
29 108 
29 111 
29 117 
29 120 
29 122 
29 129 
29 130 
29 136 
29 139 
29 141 
29 145 
29 149 
29 150 
29 155 
30 31 
30 32 
30 33 
30 34 
30 35 
30 36 
30 37 
30 38 
30 39 
30 40 
30 41 
30 42 
30 43 
30 44 
30 45 
30 46 
30 47 
30 48 
30 49 
30 50 
30 51 
30 52 
30 53 
30 54 
30 64 
30 68 
30 83 
30 100 
30 108 
30 113 
30 118 
30 121 
30 131 
30 148 
30 151 
30 155 
31 32 
31 33 
31 34 
31 35 
31 36 
31 37 
31 38 
31 39 
31 40 
31 41 
31 42 
31 43 
31 51 
31 55 
31 56 
31 57 
31 58 
31 59 
31 60 
31 61 
31 62 
31 63 
31 64 
31 65 
31 66 
31 74 
31 81 
31 92 
31 97 
31 104 
31 118 
31 126 
31 132 
31 136 
31 140 
31 141 
32 33 
32 34 
32 35 
32 36 
32 37 
32 38 
32 39 
32 40 
32 41 
32 42 
32 44 
32 53 
32 55 
32 65 
32 67 
32 68 
32 69 
32 70 
32 71 
32 72 
32 73 
32 74 
32 75 
32 76 
32 77 
32 107 
32 114 
32 115 
32 128 
32 134 
32 139 
32 140 
32 144 
32 150 
33 34 
33 35 
33 36 
33 37 
33 38 
33 39 
33 40 
33 41 
33 42 
33 45 
33 56 
33 62 
33 67 
33 74 
33 77 
33 78 
33 79 
33 80 
33 81 
33 82 
33 83 
33 84 
33 85 
33 86 
33 102 
33 114 
33 120 
33 135 
33 142 
33 149 
33 151 
33 153 
33 154 
34 35 
34 36 
34 37 
34 38 
34 39 
34 40 
34 41 
34 42 
34 46 
34 52 
34 57 
34 59 
34 68 
34 76 
34 77 
34 85 
34 86 
34 87 
34 88 
34 89 
34 90 
34 91 
34 92 
34 93 
34 97 
34 106 
34 119 
34 125 
34 128 
34 135 
34 145 
34 152 
35 36 
35 37 
35 38 
35 39 
35 40 
35 41 
35 42 
35 47 
35 49 
35 58 
35 62 
35 69 
35 70 
35 78 
35 86 
35 90 
35 94 
35 95 
35 96 
35 97 
35 98 
35 99 
35 100 
35 110 
35 116 
35 126 
35 127 
35 128 
35 129 
35 130 
35 131 
36 37 
36 38 
36 39 
36 40 
36 41 
36 42 
36 54 
36 57 
36 58 
36 70 
36 71 
36 79 
36 84 
36 87 
36 99 
36 101 
36 102 
36 103 
36 104 
36 105 
36 106 
36 107 
36 108 
36 125 
36 126 
36 133 
36 138 
36 148 
36 150 
36 154 
37 38 
37 39 
37 40 
37 41 
37 42 
37 48 
37 50 
37 59 
37 65 
37 71 
37 75 
37 80 
37 82 
37 87 
37 88 
37 94 
37 104 
37 109 
37 110 
37 111 
37 112 
37 113 
37 114 
37 130 
37 143 
37 147 
37 152 
37 154 
37 155 
38 39 
38 40 
38 41 
38 42 
38 44 
38 53 
38 60 
38 64 
38 69 
38 80 
38 88 
38 91 
38 95 
38 101 
38 106 
38 109 
38 115 
38 116 
38 117 
38 118 
38 119 
38 120 
38 123 
38 138 
38 141 
38 143 
38 146 
38 149 
39 40 
39 41 
39 42 
39 50 
39 52 
39 61 
39 63 
39 67 
39 73 
39 83 
39 90 
39 96 
39 98 
39 101 
39 109 
39 112 
39 122 
39 127 
39 136 
39 137 
39 138 
39 139 
39 140 
39 142 
39 146 
39 147 
39 148 
40 41 
40 42 
40 43 
40 48 
40 60 
40 73 
40 78 
40 84 
40 89 
40 93 
40 100 
40 105 
40 107 
40 113 
40 116 
40 124 
40 127 
40 132 
40 133 
40 137 
40 142 
40 143 
40 144 
40 145 
40 152 
40 153 
41 42 
41 45 
41 51 
41 56 
41 66 
41 72 
41 75 
41 93 
41 98 
41 99 
41 103 
41 108 
41 111 
41 112 
41 119 
41 120 
41 124 
41 129 
41 130 
41 139 
41 141 
41 144 
41 145 
41 146 
41 151 
42 46 
42 54 
42 55 
42 66 
42 76 
42 79 
42 85 
42 92 
42 94 
42 95 
42 105 
42 117 
42 122 
42 123 
42 129 
42 131 
42 134 
42 136 
42 137 
42 147 
42 149 
42 150 
42 153 
42 155 
43 44 
43 45 
43 46 
43 47 
43 48 
43 49 
43 50 
43 51 
43 52 
43 53 
43 54 
43 55 
43 56 
43 57 
43 58 
43 59 
43 60 
43 61 
43 62 
43 63 
43 64 
43 65 
43 66 
43 78 
43 89 
43 105 
43 113 
43 116 
43 133 
43 137 
43 142 
43 143 
43 144 
43 145 
44 45 
44 46 
44 47 
44 48 
44 49 
44 50 
44 51 
44 52 
44 53 
44 54 
44 55 
44 60 
44 67 
44 68 
44 69 
44 70 
44 71 
44 72 
44 73 
44 74 
44 75 
44 76 
44 88 
44 95 
44 101 
44 109 
44 115 
44 116 
44 117 
44 118 
44 119 
44 120 
45 46 
45 47 
45 48 
45 49 
45 50 
45 51 
45 52 
45 53 
45 54 
45 56 
45 66 
45 67 
45 72 
45 77 
45 78 
45 79 
45 80 
45 81 
45 82 
45 83 
45 84 
45 85 
45 93 
45 98 
45 108 
45 111 
45 120 
45 130 
45 139 
45 141 
45 145 
46 47 
46 48 
46 49 
46 50 
46 51 
46 52 
46 53 
46 54 
46 55 
46 57 
46 68 
46 77 
46 85 
46 86 
46 87 
46 88 
46 89 
46 90 
46 91 
46 92 
46 93 
46 94 
46 105 
46 117 
46 122 
46 129 
46 136 
46 149 
46 150 
46 155 
47 48 
47 49 
47 50 
47 51 
47 52 
47 53 
47 54 
47 58 
47 61 
47 69 
47 72 
47 78 
47 81 
47 86 
47 89 
47 94 
47 95 
47 96 
47 97 
47 98 
47 99 
47 100 
47 102 
47 110 
47 115 
47 121 
47 122 
47 123 
47 124 
47 125 
48 49 
48 50 
48 51 
48 52 
48 53 
48 54 
48 59 
48 60 
48 71 
48 73 
48 80 
48 84 
48 87 
48 93 
48 94 
48 100 
48 107 
48 109 
48 110 
48 111 
48 112 
48 113 
48 114 
48 124 
48 127 
48 132 
48 152 
48 153 
49 50 
49 51 
49 52 
49 53 
49 54 
49 62 
49 63 
49 70 
49 82 
49 90 
49 91 
49 96 
49 103 
49 110 
49 111 
49 116 
49 117 
49 121 
49 126 
49 127 
49 128 
49 129 
49 130 
49 131 
49 132 
49 133 
49 134 
49 135 
50 51 
50 52 
50 53 
50 54 
50 61 
50 65 
50 73 
50 75 
50 82 
50 83 
50 88 
50 90 
50 96 
50 101 
50 104 
50 112 
50 130 
50 136 
50 137 
50 138 
50 139 
50 143 
50 147 
50 152 
50 154 
50 155 
51 52 
51 53 
51 54 
51 56 
51 74 
51 75 
51 81 
51 92 
51 97 
51 99 
51 103 
51 104 
51 112 
51 118 
51 119 
51 124 
51 126 
51 129 
51 132 
51 136 
51 140 
51 141 
51 144 
51 146 
51 151 
52 53 
52 54 
52 59 
52 63 
52 67 
52 76 
52 85 
52 97 
52 98 
52 106 
52 109 
52 119 
52 122 
52 125 
52 127 
52 128 
52 135 
52 140 
52 142 
52 145 
52 146 
52 147 
52 148 
52 152 
53 54 
53 64 
53 65 
53 69 
53 77 
53 80 
53 91 
53 106 
53 107 
53 114 
53 115 
53 123 
53 128 
53 134 
53 138 
53 139 
53 140 
53 141 
53 143 
53 144 
53 146 
53 149 
53 150 
54 57 
54 66 
54 71 
54 76 
54 79 
54 84 
54 92 
54 95 
54 99 
54 123 
54 125 
54 126 
54 131 
54 133 
54 134 
54 137 
54 138 
54 147 
54 148 
54 150 
54 153 
54 154 
55 56 
55 57 
55 58 
55 59 
55 60 
55 61 
55 62 
55 63 
55 64 
55 65 
55 66 
55 67 
55 68 
55 69 
55 70 
55 71 
55 72 
55 73 
55 74 
55 75 
55 76 
55 85 
55 94 
55 105 
55 117 
55 122 
55 129 
55 136 
55 149 
55 150 
55 155 
56 57 
56 58 
56 59 
56 60 
56 61 
56 62 
56 63 
56 64 
56 65 
56 66 
56 67 
56 75 
56 77 
56 78 
56 79 
56 80 
56 81 
56 82 
56 83 
56 84 
56 85 
56 99 
56 103 
56 112 
56 119 
56 124 
56 129 
56 144 
56 146 
56 151 
57 58 
57 59 
57 60 
57 61 
57 62 
57 63 
57 64 
57 65 
57 66 
57 68 
57 71 
57 77 
57 84 
57 86 
57 87 
57 88 
57 89 
57 90 
57 91 
57 92 
57 93 
57 99 
57 125 
57 126 
57 133 
57 138 
57 148 
57 150 
57 154 
58 59 
58 60 
58 61 
58 62 
58 63 
58 64 
58 65 
58 66 
58 69 
58 70 
58 78 
58 79 
58 86 
58 87 
58 94 
58 95 
58 96 
58 97 
58 98 
58 99 
58 100 
58 101 
58 102 
58 103 
58 104 
58 105 
58 106 
58 107 
58 108 
59 60 
59 61 
59 62 
59 63 
59 64 
59 65 
59 66 
59 71 
59 76 
59 80 
59 85 
59 87 
59 94 
59 97 
59 106 
59 109 
59 110 
59 111 
59 112 
59 113 
59 114 
59 119 
59 125 
59 128 
59 135 
59 145 
59 152 
60 61 
60 62 
60 63 
60 64 
60 65 
60 66 
60 73 
60 84 
60 88 
60 93 
60 95 
60 100 
60 101 
60 107 
60 109 
60 115 
60 116 
60 117 
60 118 
60 119 
60 120 
60 124 
60 127 
60 132 
60 152 
60 153 
61 62 
61 63 
61 64 
61 65 
61 66 
61 72 
61 73 
61 81 
61 83 
61 89 
61 90 
61 96 
61 101 
61 102 
61 110 
61 112 
61 115 
61 121 
61 122 
61 123 
61 124 
61 125 
61 136 
61 137 
61 138 
61 139 
62 63 
62 64 
62 65 
62 66 
62 70 
62 74 
62 86 
62 90 
62 102 
62 110 
62 114 
62 116 
62 120 
62 126 
62 127 
62 128 
62 129 
62 130 
62 131 
62 135 
62 142 
62 149 
62 151 
62 153 
62 154 
63 64 
63 65 
63 66 
63 67 
63 82 
63 91 
63 96 
63 98 
63 103 
63 109 
63 111 
63 117 
63 121 
63 122 
63 127 
63 132 
63 133 
63 134 
63 135 
63 140 
63 142 
63 146 
63 147 
63 148 
64 65 
64 66 
64 68 
64 69 
64 80 
64 83 
64 91 
64 100 
64 106 
64 108 
64 113 
64 118 
64 121 
64 123 
64 131 
64 138 
64 141 
64 143 
64 146 
64 148 
64 149 
64 151 
64 155 
65 66 
65 75 
65 77 
65 82 
65 88 
65 104 
65 107 
65 114 
65 115 
65 128 
65 130 
65 134 
65 139 
65 140 
65 143 
65 144 
65 147 
65 150 
65 152 
65 154 
65 155 
66 72 
66 76 
66 79 
66 92 
66 93 
66 95 
66 98 
66 108 
66 111 
66 120 
66 123 
66 130 
66 131 
66 134 
66 137 
66 139 
66 141 
66 145 
66 147 
66 153 
67 68 
67 69 
67 70 
67 71 
67 72 
67 73 
67 74 
67 75 
67 76 
67 77 
67 78 
67 79 
67 80 
67 81 
67 82 
67 83 
67 84 
67 85 
67 98 
67 109 
67 122 
67 127 
67 140 
67 142 
67 146 
67 147 
67 148 
68 69 
68 70 
68 71 
68 72 
68 73 
68 74 
68 75 
68 76 
68 77 
68 83 
68 86 
68 87 
68 88 
68 89 
68 90 
68 91 
68 92 
68 93 
68 100 
68 108 
68 113 
68 118 
68 121 
68 131 
68 148 
68 151 
68 155 
69 70 
69 71 
69 72 
69 73 
69 74 
69 75 
69 76 
69 78 
69 80 
69 86 
69 91 
69 94 
69 95 
69 96 
69 97 
69 98 
69 99 
69 100 
69 106 
69 123 
69 138 
69 141 
69 143 
69 146 
69 149 
70 71 
70 72 
70 73 
70 74 
70 75 
70 76 
70 79 
70 87 
70 90 
70 101 
70 102 
70 103 
70 104 
70 105 
70 106 
70 107 
70 108 
70 110 
70 116 
70 126 
70 127 
70 128 
70 129 
70 130 
70 131 
71 72 
71 73 
71 74 
71 75 
71 76 
71 80 
71 84 
71 87 
71 94 
71 99 
71 109 
71 110 
71 111 
71 112 
71 113 
71 114 
71 125 
71 126 
71 133 
71 138 
71 148 
71 150 
71 154 
72 73 
72 74 
72 75 
72 76 
72 81 
72 89 
72 93 
72 98 
72 102 
72 108 
72 110 
72 111 
72 115 
72 120 
72 121 
72 122 
72 123 
72 124 
72 125 
72 130 
72 139 
72 141 
72 145 
73 74 
73 75 
73 76 
73 83 
73 84 
73 90 
73 93 
73 96 
73 100 
73 101 
73 107 
73 112 
73 124 
73 127 
73 132 
73 136 
73 137 
73 138 
73 139 
73 152 
73 153 
74 75 
74 76 
74 81 
74 86 
74 92 
74 97 
74 102 
74 104 
74 114 
74 118 
74 120 
74 126 
74 132 
74 135 
74 136 
74 140 
74 141 
74 142 
74 149 
74 151 
74 153 
74 154 
75 76 
75 82 
75 88 
75 99 
75 103 
75 104 
75 112 
75 119 
75 124 
75 129 
75 130 
75 143 
75 144 
75 146 
75 147 
75 151 
75 152 
75 154 
75 155 
76 79 
76 85 
76 92 
76 95 
76 97 
76 106 
76 119 
76 123 
76 125 
76 128 
76 131 
76 134 
76 135 
76 137 
76 145 
76 147 
76 152 
76 153 
77 78 
77 79 
77 80 
77 81 
77 82 
77 83 
77 84 
77 85 
77 86 
77 87 
77 88 
77 89 
77 90 
77 91 
77 92 
77 93 
77 107 
77 114 
77 115 
77 128 
77 134 
77 139 
77 140 
77 144 
77 150 
78 79 
78 80 
78 81 
78 82 
78 83 
78 84 
78 85 
78 86 
78 89 
78 94 
78 95 
78 96 
78 97 
78 98 
78 99 
78 100 
78 105 
78 113 
78 116 
78 133 
78 137 
78 142 
78 143 
78 144 
78 145 
79 80 
79 81 
79 82 
79 83 
79 84 
79 85 
79 87 
79 92 
79 95 
79 101 
79 102 
79 103 
79 104 
79 105 
79 106 
79 107 
79 108 
79 123 
79 131 
79 134 
79 137 
79 147 
79 153 
80 81 
80 82 
80 83 
80 84 
80 85 
80 87 
80 91 
80 94 
80 106 
80 109 
80 110 
80 111 
80 112 
80 113 
80 114 
80 123 
80 138 
80 141 
80 143 
80 146 
80 149 
81 82 
81 83 
81 84 
81 85 
81 89 
81 92 
81 97 
81 102 
81 104 
81 110 
81 115 
81 118 
81 121 
81 122 
81 123 
81 124 
81 125 
81 126 
81 132 
81 136 
81 140 
81 141 
82 83 
82 84 
82 85 
82 88 
82 91 
82 96 
82 103 
82 104 
82 111 
82 117 
82 121 
82 130 
82 132 
82 133 
82 134 
82 135 
82 143 
82 147 
82 152 
82 154 
82 155 
83 84 
83 85 
83 90 
83 96 
83 100 
83 101 
83 108 
83 112 
83 113 
83 118 
83 121 
83 131 
83 136 
83 137 
83 138 
83 139 
83 148 
83 151 
83 155 
84 85 
84 93 
84 99 
84 100 
84 107 
84 124 
84 125 
84 126 
84 127 
84 132 
84 133 
84 138 
84 148 
84 150 
84 152 
84 153 
84 154 
85 94 
85 97 
85 105 
85 106 
85 117 
85 119 
85 122 
85 125 
85 128 
85 129 
85 135 
85 136 
85 145 
85 149 
85 150 
85 152 
85 155 
86 87 
86 88 
86 89 
86 90 
86 91 
86 92 
86 93 
86 94 
86 95 
86 96 
86 97 
86 98 
86 99 
86 100 
86 102 
86 114 
86 120 
86 135 
86 142 
86 149 
86 151 
86 153 
86 154 
87 88 
87 89 
87 90 
87 91 
87 92 
87 93 
87 94 
87 101 
87 102 
87 103 
87 104 
87 105 
87 106 
87 107 
87 108 
87 109 
87 110 
87 111 
87 112 
87 113 
87 114 
88 89 
88 90 
88 91 
88 92 
88 93 
88 95 
88 101 
88 104 
88 109 
88 115 
88 116 
88 117 
88 118 
88 119 
88 120 
88 130 
88 143 
88 147 
88 152 
88 154 
88 155 
89 90 
89 91 
89 92 
89 93 
89 102 
89 105 
89 110 
89 113 
89 115 
89 116 
89 121 
89 122 
89 123 
89 124 
89 125 
89 133 
89 137 
89 142 
89 143 
89 144 
89 145 
90 91 
90 92 
90 93 
90 96 
90 101 
90 110 
90 112 
90 116 
90 126 
90 127 
90 128 
90 129 
90 130 
90 131 
90 136 
90 137 
90 138 
90 139 
91 92 
91 93 
91 96 
91 103 
91 106 
91 111 
91 117 
91 121 
91 123 
91 132 
91 133 
91 134 
91 135 
91 138 
91 141 
91 143 
91 146 
91 149 
92 93 
92 95 
92 97 
92 104 
92 118 
92 123 
92 126 
92 131 
92 132 
92 134 
92 136 
92 137 
92 140 
92 141 
92 147 
92 153 
93 98 
93 100 
93 107 
93 108 
93 111 
93 120 
93 124 
93 127 
93 130 
93 132 
93 139 
93 141 
93 145 
93 152 
93 153 
94 95 
94 96 
94 97 
94 98 
94 99 
94 100 
94 105 
94 109 
94 110 
94 111 
94 112 
94 113 
94 114 
94 117 
94 122 
94 129 
94 136 
94 149 
94 150 
94 155 
95 96 
95 97 
95 98 
95 99 
95 100 
95 101 
95 109 
95 115 
95 116 
95 117 
95 118 
95 119 
95 120 
95 123 
95 131 
95 134 
95 137 
95 147 
95 153 
96 97 
96 98 
96 99 
96 100 
96 101 
96 103 
96 111 
96 112 
96 117 
96 121 
96 132 
96 133 
96 134 
96 135 
96 136 
96 137 
96 138 
96 139 
97 98 
97 99 
97 100 
97 104 
97 106 
97 118 
97 119 
97 125 
97 126 
97 128 
97 132 
97 135 
97 136 
97 140 
97 141 
97 145 
97 152 
98 99 
98 100 
98 108 
98 109 
98 111 
98 120 
98 122 
98 127 
98 130 
98 139 
98 140 
98 141 
98 142 
98 145 
98 146 
98 147 
98 148 
99 100 
99 103 
99 112 
99 119 
99 124 
99 125 
99 126 
99 129 
99 133 
99 138 
99 144 
99 146 
99 148 
99 150 
99 151 
99 154 
100 107 
100 108 
100 113 
100 118 
100 121 
100 124 
100 127 
100 131 
100 132 
100 148 
100 151 
100 152 
100 153 
100 155 
101 102 
101 103 
101 104 
101 105 
101 106 
101 107 
101 108 
101 109 
101 112 
101 115 
101 116 
101 117 
101 118 
101 119 
101 120 
101 136 
101 137 
101 138 
101 139 
102 103 
102 104 
102 105 
102 106 
102 107 
102 108 
102 110 
102 114 
102 115 
102 120 
102 121 
102 122 
102 123 
102 124 
102 125 
102 135 
102 142 
102 149 
102 151 
102 153 
102 154 
103 104 
103 105 
103 106 
103 107 
103 108 
103 111 
103 112 
103 117 
103 119 
103 121 
103 124 
103 129 
103 132 
103 133 
103 134 
103 135 
103 144 
103 146 
103 151 
104 105 
104 106 
104 107 
104 108 
104 118 
104 126 
104 130 
104 132 
104 136 
104 140 
104 141 
104 143 
104 147 
104 152 
104 154 
104 155 
105 106 
105 107 
105 108 
105 113 
105 116 
105 117 
105 122 
105 129 
105 133 
105 136 
105 137 
105 142 
105 143 
105 144 
105 145 
105 149 
105 150 
105 155 
106 107 
106 108 
106 119 
106 123 
106 125 
106 128 
106 135 
106 138 
106 141 
106 143 
106 145 
106 146 
106 149 
106 152 
107 108 
107 114 
107 115 
107 124 
107 127 
107 128 
107 132 
107 134 
107 139 
107 140 
107 144 
107 150 
107 152 
107 153 
108 111 
108 113 
108 118 
108 120 
108 121 
108 130 
108 131 
108 139 
108 141 
108 145 
108 148 
108 151 
108 155 
109 110 
109 111 
109 112 
109 113 
109 114 
109 115 
109 116 
109 117 
109 118 
109 119 
109 120 
109 122 
109 127 
109 140 
109 142 
109 146 
109 147 
109 148 
110 111 
110 112 
110 113 
110 114 
110 115 
110 116 
110 121 
110 122 
110 123 
110 124 
110 125 
110 126 
110 127 
110 128 
110 129 
110 130 
110 131 
111 112 
111 113 
111 114 
111 117 
111 120 
111 121 
111 130 
111 132 
111 133 
111 134 
111 135 
111 139 
111 141 
111 145 
112 113 
112 114 
112 119 
112 124 
112 129 
112 136 
112 137 
112 138 
112 139 
112 144 
112 146 
112 151 
113 114 
113 116 
113 118 
113 121 
113 131 
113 133 
113 137 
113 142 
113 143 
113 144 
113 145 
113 148 
113 151 
113 155 
114 115 
114 120 
114 128 
114 134 
114 135 
114 139 
114 140 
114 142 
114 144 
114 149 
114 150 
114 151 
114 153 
114 154 
115 116 
115 117 
115 118 
115 119 
115 120 
115 121 
115 122 
115 123 
115 124 
115 125 
115 128 
115 134 
115 139 
115 140 
115 144 
115 150 
116 117 
116 118 
116 119 
116 120 
116 126 
116 127 
116 128 
116 129 
116 130 
116 131 
116 133 
116 137 
116 142 
116 143 
116 144 
116 145 
117 118 
117 119 
117 120 
117 121 
117 122 
117 129 
117 132 
117 133 
117 134 
117 135 
117 136 
117 149 
117 150 
117 155 
118 119 
118 120 
118 121 
118 126 
118 131 
118 132 
118 136 
118 140 
118 141 
118 148 
118 151 
118 155 
119 120 
119 124 
119 125 
119 128 
119 129 
119 135 
119 144 
119 145 
119 146 
119 151 
119 152 
120 130 
120 135 
120 139 
120 141 
120 142 
120 145 
120 149 
120 151 
120 153 
120 154 
121 122 
121 123 
121 124 
121 125 
121 131 
121 132 
121 133 
121 134 
121 135 
121 148 
121 151 
121 155 
122 123 
122 124 
122 125 
122 127 
122 129 
122 136 
122 140 
122 142 
122 146 
122 147 
122 148 
122 149 
122 150 
122 155 
123 124 
123 125 
123 131 
123 134 
123 137 
123 138 
123 141 
123 143 
123 146 
123 147 
123 149 
123 153 
124 125 
124 127 
124 129 
124 132 
124 144 
124 146 
124 151 
124 152 
124 153 
125 126 
125 128 
125 133 
125 135 
125 138 
125 145 
125 148 
125 150 
125 152 
125 154 
126 127 
126 128 
126 129 
126 130 
126 131 
126 132 
126 133 
126 136 
126 138 
126 140 
126 141 
126 148 
126 150 
126 154 
127 128 
127 129 
127 130 
127 131 
127 132 
127 140 
127 142 
127 146 
127 147 
127 148 
127 152 
127 153 
128 129 
128 130 
128 131 
128 134 
128 135 
128 139 
128 140 
128 144 
128 145 
128 150 
128 152 
129 130 
129 131 
129 136 
129 144 
129 146 
129 149 
129 150 
129 151 
129 155 
130 131 
130 139 
130 141 
130 143 
130 145 
130 147 
130 152 
130 154 
130 155 
131 134 
131 137 
131 147 
131 148 
131 151 
131 153 
131 155 
132 133 
132 134 
132 135 
132 136 
132 140 
132 141 
132 152 
132 153 
133 134 
133 135 
133 137 
133 138 
133 142 
133 143 
133 144 
133 145 
133 148 
133 150 
133 154 
134 135 
134 137 
134 139 
134 140 
134 144 
134 147 
134 150 
134 153 
135 142 
135 145 
135 149 
135 151 
135 152 
135 153 
135 154 
136 137 
136 138 
136 139 
136 140 
136 141 
136 149 
136 150 
136 155 
137 138 
137 139 
137 142 
137 143 
137 144 
137 145 
137 147 
137 153 
138 139 
138 141 
138 143 
138 146 
138 148 
138 149 
138 150 
138 154 
139 140 
139 141 
139 144 
139 145 
139 150 
140 141 
140 142 
140 144 
140 146 
140 147 
140 148 
140 150 
141 143 
141 145 
141 146 
141 149 
142 143 
142 144 
142 145 
142 146 
142 147 
142 148 
142 149 
142 151 
142 153 
142 154 
143 144 
143 145 
143 146 
143 147 
143 149 
143 152 
143 154 
143 155 
144 145 
144 146 
144 150 
144 151 
145 152 
146 147 
146 148 
146 149 
146 151 
147 148 
147 152 
147 153 
147 154 
147 155 
148 150 
148 151 
148 154 
148 155 
149 150 
149 151 
149 153 
149 154 
149 155 
150 154 
150 155 
151 153 
151 154 
151 155 
152 153 
152 154 
152 155 
153 154 
154 155 
